\ This file has been generated by DOcplex
\ ENCODING=ISO-8859-1
\Problem name: random_problem.lp

Minimize
 obj: 436 x0 + 218 x1 + 934 x2 + 467 x3 + 230 x4 + 115 x5 - 784 x6 - 392 x7 + [
      9312 x0^2 + 9312 x0*x1 + 2336 x0*x2 + 1168 x0*x3 + 1888 x0*x4 + 944 x0*x5
      + 1536 x0*x6 + 768 x0*x7 + 2328 x1^2 + 1168 x1*x2 + 584 x1*x3 + 944 x1*x4
      + 472 x1*x5 + 768 x1*x6 + 384 x1*x7 + 5008 x2^2 + 5008 x2*x3 + 2720 x2*x4
      + 1360 x2*x5 + 1696 x2*x6 + 848 x2*x7 + 1252 x3^2 + 1360 x3*x4 + 680 x3*x5
      + 848 x3*x6 + 424 x3*x7 + 2496 x4^2 + 2496 x4*x5 + 1280 x4*x6 + 640 x4*x7
      + 624 x5^2 + 640 x5*x6 + 320 x5*x7 + 10176 x6^2 + 10176 x6*x7 + 2544 x7^2
      ]/2
Subject To
 c0: 2 x0 + x1 + 2 x2 + x3 + 2 x4 + x5 + 2 x6 + x7 = 3

Bounds
 0 <= x0 <= 1
 0 <= x1 <= 1
 0 <= x2 <= 1
 0 <= x3 <= 1
 0 <= x4 <= 1
 0 <= x5 <= 1
 0 <= x6 <= 1
 0 <= x7 <= 1

Binaries
 x0 x1 x2 x3 x4 x5 x6 x7
End
